3 15
307 388 344 
0 13 23 45 42 56 60 72 48 60 75 42 84 1
1 23 24 57 66 1 1 95 18 25 7 99 18 1
2 19 14 94 84 66 63 45 22 44 21 42 95 2
3 49 51 6 5 44 52 40 63 80 35 91 21 2
4 75 80 21 30 67 73 100 21 35 80 29 25 1
5 18 13 73 68 12 14 61 63 55 95 52 84 1
6 81 73 10 7 39 34 42 53 94 48 72 45 3
7 61 51 93 90 31 28 81 51 47 74 31 70 3
8 25 25 89 99 66 66 63 19 99 61 18 81 1
9 14 18 65 72 21 19 92 12 92 90 83 61 1
10 62 67 19 14 60 52 79 21 24 22 22 6 1
11 53 59 78 69 63 72 86 64 62 10 83 84 3
12 72 68 27 18 55 61 21 60 38 34 67 20 2
13 47 40 87 78 16 25 28 39 21 65 69 88 3
14 16 8 25 35 76 69 4 78 24 25 36 93 3
